; benchmark generated from python API
(set-info :status unknown)
(declare-datatypes ((IntState 0)) (((Mk1 (val1 Int)) (Mk2 (val2 Int)))))
 (declare-fun |c_hanoi_#in~n| () Int)
(declare-fun |c_hanoi_#res| () Int)
(declare-fun c_hanoi_~n () Int)
(assert
 (let (($x34 (exists ((v_nnf_227_st IntState) (val!60 Int) )(exists ((|v_hanoi_#t~ret0_34_st| IntState) (val!61 Int) )(let (($x46 (<= |c_hanoi_#in~n| 3)))
 (let (($x150 (and (<= (+ (* 2 (val2 |v_hanoi_#t~ret0_34_st|)) 1) |c_hanoi_#res|) (<= 1 (val2 v_nnf_227_st)) (<= (+ (* 2 (val2 v_nnf_227_st)) 1) (val2 |v_hanoi_#t~ret0_34_st|)) $x46)))
 (let (($x52 (not (= |v_hanoi_#t~ret0_34_st| (Mk1 val!61)))))
 (let (($x77 (not (= v_nnf_227_st (Mk1 val!60)))))
 (and $x77 $x52 $x150))))))
 )
 ))
 (let (($x60 (<= |c_hanoi_#in~n| c_hanoi_~n)))
 (let (($x57 (exists ((v_nnf_227 Int) )(exists ((|v_hanoi_#t~ret0_34| Int) )(let (($x46 (<= |c_hanoi_#in~n| 3)))
 (and (<= (+ (* 2 |v_hanoi_#t~ret0_34|) 1) |c_hanoi_#res|) (<= 1 v_nnf_227) (<= (+ (* 2 v_nnf_227) 1) |v_hanoi_#t~ret0_34|) $x46)))
 )
 ))
 (and (and $x57 $x60) (not $x34))))))
(check-sat)
